c description: Perfect Matching Principle on 
c generator: CNFgen (0.9.0)
c copyright: (C) 2012-2020 Massimo Lauria <massimo.lauria@uniroma1.it>
c url: https://massimolauria.net/cnfgen
c
p cnf 40 120
1 0
2 0
3 0
-4 -5 0
-4 -6 0
-5 -6 0
4 5 6 0
0
4 0
-7 -8 0
-7 -9 0
-8 -9 0
7 8 9 0
-10 -11 0
10 11 0
-7 -12 0
-7 -13 0
-12 -13 0
7 12 13 0
-14 -15 0
14 15 0
16 0
-10 -12 0
-10 -17 0
-10 -18 0
-12 -17 0
-12 -18 0
-17 -18 0
10 12 17 18 0
19 0
-8 -20 0
8 20 0
21 0
-22 -23 0
22 23 0
-2 -24 0
-2 -25 0
-24 -25 0
2 24 25 0
-11 -26 0
-11 -27 0
-11 -28 0
-11 -29 0
-11 -30 0
-26 -27 0
-26 -28 0
-26 -29 0
-26 -30 0
-27 -28 0
-27 -29 0
-27 -30 0
-28 -29 0
-28 -30 0
-29 -30 0
11 26 27 28 29 30 0
0
26 0
-14 -31 0
-14 -32 0
-31 -32 0
14 31 32 0
-5 -22 0
-5 -33 0
-22 -33 0
5 22 33 0
-17 -33 0
-17 -34 0
-17 -35 0
-33 -34 0
-33 -35 0
-34 -35 0
17 33 34 35 0
34 0
0
0
36 0
37 0
-9 -24 0
-9 -27 0
-24 -27 0
9 24 27 0
-15 -28 0
-15 -31 0
-15 -36 0
-28 -31 0
-28 -36 0
-31 -36 0
15 28 31 36 0
35 0
-1 -3 0
-1 -20 0
-1 -38 0
-3 -20 0
-3 -38 0
-20 -38 0
1 3 20 38 0
-38 -39 0
38 39 0
-13 -29 0
13 29 0
0
-6 -16 0
-6 -30 0
-6 -32 0
-16 -30 0
-16 -32 0
-30 -32 0
6 16 30 32 0
21 0
-23 -40 0
23 40 0
-18 -19 0
18 19 0
-25 -37 0
-25 -39 0
-25 -40 0
-37 -39 0
-37 -40 0
-39 -40 0
25 37 39 40 0